100
30
6
23
17
15
4
11
31
32
18
5
5
16
21
5
32
29
8
7
32
28
3
13
24
6
10
32
6
10
4
10
20
16
32
32
21
24
14
31
1
5
32
2
32
19
8
31
15
20
2
1
3
1
10
1
16
31
3
32
32
19
1
2
5
3
19
32
18
12
19
11
1
31
17
12
4
1
8
5
7
1
3
18
16
25
6
11
8
5
3
2
32
19
2
21
9
2
6
2
32
28